out/production/KConstraintMultipleKnapsackProblem/zimpl/instances/knapsack100nr12.txt
# Nr of Items 
100
# Nr of Knapsacks 
5
# Nr of Constraints 
2
# Items profits:
905 
307 
894 
154 
340 
796 
534 
357 
975 
485 
231 
725 
528 
628 
760 
667 
579 
514 
108 
218 
915 
661 
168 
747 
376 
511 
944 
79 
507 
785 
284 
568 
398 
181 
448 
36 
799 
182 
536 
583 
908 
405 
961 
364 
145 
41 
724 
80 
916 
883 
966 
180 
530 
589 
314 
45 
491 
534 
615 
961 
305 
756 
774 
65 
887 
237 
163 
117 
21 
858 
261 
912 
184 
122 
648 
202 
158 
184 
175 
404 
248 
345 
143 
59 
897 
277 
685 
596 
251 
896 
850 
241 
298 
13 
788 
662 
888 
144 
77 
490 

# Items weights:
777 62 
876 470 
430 706 
365 706 
615 446 
546 54 
926 81 
422 573 
77 31 
339 552 
933 866 
134 608 
659 593 
659 484 
935 909 
39 179 
245 268 
579 791 
113 375 
957 486 
973 643 
999 232 
619 125 
912 78 
670 527 
524 169 
945 815 
255 645 
760 825 
489 802 
659 639 
866 601 
575 855 
233 600 
621 788 
530 11 
678 345 
642 549 
698 767 
648 776 
761 880 
102 73 
842 274 
249 645 
431 587 
180 125 
466 696 
554 668 
350 398 
546 176 
579 389 
765 411 
392 528 
153 898 
836 539 
911 853 
242 601 
852 806 
10 853 
444 369 
726 413 
327 596 
886 780 
361 710 
78 177 
680 556 
677 988 
636 105 
696 168 
757 222 
923 674 
195 278 
609 649 
330 862 
210 565 
719 586 
953 48 
565 868 
880 958 
245 618 
869 534 
849 145 
188 814 
864 213 
932 999 
635 310 
617 370 
589 716 
769 752 
244 509 
956 789 
11 315 
134 938 
51 907 
760 603 
550 624 
786 614 
934 861 
586 845 
208 536 
# Knapsacks:
4943 5718 
5717 5278 
5246 6253 
4885 6286 
17891 15241 
